16
45
8
0 2
0 4
0 12
0 14
1 3
1 5
1 7
1 9
1 11
1 13
1 15
2 4
2 6
2 8
2 12
2 14
3 7
3 9
3 11
3 13
3 15
4 6
4 8
4 10
4 12
4 14
5 7
5 9
5 11
6 12
6 14
7 9
7 11
7 13
7 15
8 14
9 11
9 13
9 15
10 12
10 14
11 13
11 15
12 14
13 15
0 1
2 3
4 5
6 7
8 9
10 11
12 13
14 15
